NAME : cgl_48.9187.tour
COMMENT : Length = 9187
COMMENT : Found by LKH-3 [Keld Helsgaun] Thu Jun 26 21:26:48 2025
TYPE : TOUR
DIMENSION : 49
TOUR_SECTION
1
5
4
36
37
35
29
27
28
30
34
33
31
32
38
39
40
41
42
43
44
46
45
48
47
49
25
26
9
11
8
10
12
13
24
23
22
20
21
19
18
15
17
14
16
7
6
3
2
-1
EOF
